60
1 0 29
2 0 20
2 1 31
3 0 21
3 1 2
3 2 9
4 1 12
4 3 24
5 0 29
5 1 23
5 2 4
5 3 10
5 4 8
6 0 24
6 1 5
6 3 3
6 4 15
6 5 3
7 0 3
7 1 13
7 2 30
7 3 9
7 4 16
7 5 38
7 6 18
8 0 30
8 1 16
8 2 35
8 3 16
8 4 37
8 5 19
8 7 26
9 0 26
9 1 13
9 3 6
9 4 9
9 6 27
9 7 25
9 8 33
10 1 37
10 2 30
10 3 29
10 4 21
10 5 22
10 6 26
10 7 1
10 8 6
10 9 36
11 0 1
11 1 4
11 2 30
11 3 37
11 4 20
11 7 13
11 8 10
11 9 12
11 10 19
12 0 26
12 1 20
12 2 39
12 3 6
12 4 2
12 5 17
12 7 12
12 8 7
12 9 27
12 11 25
13 0 12
13 1 37
13 2 40
13 3 30
13 4 8
13 5 14
13 6 26
13 7 31
13 8 10
13 9 28
13 10 9
13 11 39
13 12 11
14 0 16
14 1 39
14 2 21
14 3 3
14 4 33
14 5 29
14 6 1
14 7 18
14 8 20
14 9 29
14 11 6
14 13 6
15 0 14
15 1 26
15 2 37
15 3 25
15 4 14
15 7 3
15 9 38
15 10 19
15 11 23
15 12 17
15 13 9
15 14 29
16 0 5
16 2 18
16 3 10
16 4 29
16 5 16
16 6 37
16 7 14
16 8 6
16 9 10
16 10 36
16 11 18
16 12 38
16 13 24
16 15 4
17 0 22
17 1 31
17 2 6
17 3 24
17 4 24
17 5 40
17 6 31
17 7 13
17 8 29
17 9 6
17 10 12
17 12 34
17 13 24
17 14 9
17 15 14
17 16 32
18 0 36
18 1 7
18 2 27
18 3 23
18 4 34
18 5 6
18 6 18
18 7 8
18 8 19
18 9 37
18 10 27
18 14 29
18 15 29
18 16 29
18 17 33
19 0 20
19 1 40
19 2 38
19 4 2
19 5 21
19 6 18
19 7 19
19 8 6
19 9 25
19 11 35
19 12 34
19 13 37
19 14 23
19 15 18
19 16 27
19 18 22
20 0 21
20 1 24
20 2 20
20 4 28
20 5 31
20 6 6
20 7 10
20 8 10
20 9 36
20 10 16
20 12 19
20 13 12
20 14 31
20 15 21
20 16 19
20 17 36
20 18 31
20 19 37
21 0 36
21 1 29
21 2 22
21 3 4
21 4 13
21 5 16
21 6 18
21 7 25
21 8 33
21 10 30
21 11 12
21 12 26
21 13 39
21 14 14
21 17 21
21 18 16
21 19 39
21 20 29
22 0 3
22 1 23
22 2 26
22 3 36
22 4 2
22 5 35
22 6 25
22 7 37
22 8 40
22 9 19
22 10 13
22 12 14
22 13 1
22 14 24
22 15 22
22 16 11
22 17 26
22 18 2
22 19 12
22 20 35
22 21 28
23 0 38
23 2 26
23 3 2
23 4 40
23 6 33
23 7 35
23 8 29
23 9 13
23 12 12
23 13 12
23 14 9
23 15 37
23 16 38
23 17 7
23 18 18
23 19 18
23 20 7
23 21 31
23 22 34
24 0 28
24 1 11
24 2 2
24 3 14
24 4 25
24 5 39
24 6 11
24 7 18
24 8 4
24 9 18
24 10 25
24 11 21
24 12 9
24 13 37
24 14 27
24 16 19
24 17 27
24 18 22
24 20 11
24 21 26
24 22 23
24 23 39
25 0 3
25 1 10
25 2 32
25 3 33
25 4 4
25 5 18
25 6 36
25 7 36
25 8 25
25 9 27
25 10 33
25 12 3
25 13 27
25 14 14
25 15 37
25 16 19
25 17 7
25 19 9
25 20 3
25 21 31
25 22 10
25 23 22
25 24 15
26 0 38
26 1 28
26 2 23
26 3 23
26 4 30
26 5 37
26 6 29
26 7 5
26 8 29
26 9 3
26 10 12
26 11 6
26 12 37
26 13 29
26 15 29
26 16 35
26 17 25
26 18 26
26 19 21
26 20 32
26 21 1
26 22 38
26 23 39
26 24 13
26 25 5
27 1 30
27 2 40
27 3 8
27 4 27
27 5 5
27 6 25
27 7 38
27 8 37
27 9 26
27 10 28
27 11 6
27 12 27
27 15 6
27 16 3
27 17 40
27 18 14
27 19 10
27 20 3
27 21 18
27 23 28
27 24 32
27 25 5
27 26 15
28 0 25
28 1 6
28 2 37
28 3 2
28 4 25
28 5 37
28 6 28
28 7 22
28 8 11
28 9 38
28 10 34
28 13 4
28 14 7
28 15 14
28 17 25
28 18 17
28 19 6
28 21 37
28 22 13
28 23 2
28 24 34
28 25 29
28 26 10
28 27 33
29 0 19
29 1 24
29 2 36
29 4 15
29 5 25
29 6 39
29 7 18
29 8 38
29 9 30
29 10 36
29 11 33
29 12 6
29 14 24
29 15 39
29 17 5
29 18 33
29 19 7
29 20 7
29 21 24
29 22 10
29 23 20
29 24 8
29 25 23
29 26 33
29 27 23
30 1 20
30 2 11
30 3 10
30 4 40
30 5 28
30 6 24
30 8 6
30 9 33
30 10 16
30 11 7
30 13 11
30 14 28
30 15 37
30 16 19
30 17 25
30 18 17
30 19 22
30 20 6
30 21 1
30 22 32
30 23 9
30 24 8
30 25 4
30 26 20
30 27 10
30 28 10
30 29 11
31 1 21
31 2 37
31 3 32
31 4 20
31 5 7
31 7 12
31 8 38
31 9 35
31 10 4
31 11 15
31 12 14
31 13 35
31 15 28
31 16 13
31 17 25
31 18 11
31 19 31
31 20 30
31 21 40
31 23 23
31 25 16
31 26 18
31 27 32
31 28 16
31 29 33
31 30 27
32 0 21
32 1 10
32 2 30
32 3 36
32 4 24
32 5 5
32 7 12
32 8 40
32 9 1
32 10 1
32 11 1
32 12 27
32 13 38
32 14 24
32 15 34
32 16 1
32 17 4
32 18 5
32 19 22
32 20 37
32 21 22
32 23 13
32 24 18
32 25 35
32 26 7
32 27 28
32 28 40
32 29 32
32 30 25
32 31 29
33 0 38
33 1 34
33 2 39
33 3 2
33 4 15
33 5 14
33 6 26
33 8 21
33 9 34
33 11 36
33 12 7
33 13 28
33 14 30
33 15 1
33 16 27
33 18 12
33 19 35
33 20 3
33 21 30
33 22 35
33 24 8
33 25 26
33 26 38
33 27 34
33 28 18
33 29 36
33 30 9
33 31 1
33 32 24
34 0 10
34 1 34
34 3 31
34 4 12
34 5 23
34 6 1
34 7 27
34 8 7
34 9 40
34 10 5
34 11 8
34 12 21
34 13 10
34 14 20
34 15 16
34 16 26
34 17 32
34 18 37
34 19 14
34 20 8
34 21 25
34 22 33
34 23 13
34 24 18
34 25 15
34 26 1
34 27 12
34 28 32
34 29 13
34 30 8
34 31 9
34 32 23
34 33 18
35 0 21
35 1 34
35 3 13
35 4 18
35 5 3
35 6 12
35 7 9
35 8 6
35 9 28
35 10 20
35 11 37
35 12 12
35 13 20
35 14 11
35 15 3
35 16 14
35 17 11
35 18 23
35 19 19
35 20 8
35 21 5
35 22 8
35 23 6
35 26 24
35 28 24
35 29 17
35 30 21
35 32 34
35 33 18
35 34 26
36 0 30
36 1 2
36 3 36
36 4 10
36 5 38
36 6 31
36 7 7
36 8 19
36 10 10
36 12 19
36 13 17
36 14 26
36 15 7
36 16 8
36 17 28
36 18 24
36 19 15
36 20 40
36 21 28
36 22 21
36 23 17
36 24 21
36 25 1
36 26 32
36 27 4
36 29 38
36 30 12
36 31 15
36 32 14
36 33 3
36 34 39
37 0 18
37 1 19
37 2 28
37 3 10
37 4 8
37 5 30
37 6 8
37 7 28
37 8 7
37 9 3
37 10 18
37 12 2
37 13 12
37 14 24
37 15 37
37 16 21
37 17 5
37 18 20
37 19 36
37 20 27
37 21 16
37 22 6
37 23 7
37 24 33
37 25 30
37 26 2
37 27 15
37 28 15
37 30 36
37 31 17
37 33 5
37 34 22
37 35 27
37 36 26
38 0 24
38 1 22
38 2 10
38 3 22
38 4 10
38 5 29
38 6 39
38 7 10
38 8 22
38 9 38
38 10 37
38 12 38
38 13 33
38 14 28
38 15 8
38 16 35
38 17 8
38 18 2
38 19 30
38 20 15
38 21 17
38 25 16
38 26 4
38 27 3
38 28 40
38 29 18
38 30 4
38 31 28
38 32 39
38 33 33
38 34 29
38 35 18
38 36 13
38 37 34
39 0 19
39 1 38
39 2 20
39 4 36
39 5 22
39 6 18
39 7 38
39 9 28
39 10 4
39 12 13
39 13 27
39 14 6
39 15 29
39 16 36
39 17 18
39 18 35
39 19 4
39 20 3
39 21 25
39 22 8
39 23 14
39 24 14
39 25 19
39 26 16
39 27 9
39 28 40
39 29 40
39 30 10
39 31 37
39 32 29
39 34 33
39 35 15
39 36 29
39 37 23
39 38 31
40 0 11
40 1 7
40 2 35
40 3 25
40 4 1
40 5 4
40 6 21
40 7 15
40 8 14
40 9 36
40 10 16
40 11 22
40 12 14
40 13 1
40 15 16
40 16 9
40 17 11
40 18 31
40 19 11
40 20 33
40 22 16
40 23 16
40 24 13
40 26 7
40 27 21
40 28 34
40 29 39
40 30 38
40 32 26
40 33 1
40 34 39
40 35 31
40 36 39
40 38 5
41 0 29
41 1 32
41 4 33
41 5 39
41 6 19
41 8 23
41 9 19
41 10 14
41 11 19
41 12 36
41 13 29
41 14 23
41 15 2
41 16 13
41 17 24
41 19 25
41 20 22
41 21 38
41 22 36
41 23 34
41 24 17
41 25 28
41 26 6
41 27 30
41 28 37
41 29 12
41 30 15
41 31 8
41 32 32
41 33 15
41 34 22
41 35 6
41 36 24
41 37 26
41 38 9
41 39 40
41 40 12
42 0 14
42 2 19
42 4 10
42 5 25
42 6 26
42 7 8
42 8 19
42 9 15
42 10 18
42 11 37
42 13 5
42 15 15
42 16 17
42 17 20
42 18 34
42 19 31
42 20 32
42 21 21
42 22 30
42 23 4
42 24 29
42 25 6
42 27 13
42 28 9
42 30 10
42 31 10
42 32 24
42 33 29
42 34 6
42 35 5
42 36 25
42 37 6
42 38 19
42 39 17
42 40 14
42 41 15
43 0 15
43 1 30
43 2 18
43 3 10
43 4 19
43 5 4
43 6 3
43 7 34
43 8 28
43 9 3
43 10 17
43 11 21
43 12 5
43 13 24
43 14 14
43 15 2
43 16 35
43 17 21
43 19 40
43 20 8
43 21 20
43 22 19
43 23 12
43 24 39
43 25 33
43 26 15
43 27 7
43 28 21
43 29 24
43 30 26
43 31 31
43 34 18
43 35 14
43 36 8
43 37 19
43 38 13
43 39 21
43 40 5
43 41 38
43 42 1
44 0 31
44 1 19
44 2 13
44 3 2
44 5 22
44 6 9
44 7 5
44 8 6
44 9 17
44 10 32
44 11 29
44 12 39
44 13 19
44 14 32
44 15 33
44 16 8
44 17 38
44 18 37
44 19 34
44 20 7
44 21 6
44 22 10
44 23 9
44 24 6
44 25 29
44 26 28
44 27 14
44 28 1
44 30 11
44 31 8
44 32 28
44 33 17
44 34 16
44 35 15
44 36 23
44 37 5
44 38 40
44 40 20
44 41 7
44 42 25
44 43 31
45 0 12
45 1 32
45 2 34
45 3 40
45 4 26
45 5 28
45 6 13
45 7 3
45 8 7
45 9 14
45 10 35
45 11 26
45 13 30
45 14 18
45 17 3
45 18 4
45 19 31
45 20 16
45 21 40
45 22 6
45 23 2
45 25 40
45 26 19
45 27 23
45 28 1
45 29 29
45 31 28
45 33 19
45 35 8
45 36 14
45 37 6
45 38 31
45 39 16
45 40 28
45 41 19
45 42 29
45 43 28
45 44 35
46 0 34
46 1 29
46 2 28
46 4 22
46 5 37
46 6 27
46 7 16
46 8 6
46 9 30
46 10 10
46 11 29
46 12 23
46 13 31
46 14 2
46 15 7
46 16 29
46 17 29
46 18 3
46 19 11
46 20 10
46 21 40
46 22 27
46 23 2
46 24 2
46 25 33
46 26 14
46 28 3
46 29 26
46 30 12
46 31 27
46 32 31
46 33 27
46 34 1
46 35 27
46 36 21
46 37 35
46 38 38
46 39 22
46 43 3
46 44 1
46 45 28
47 0 35
47 1 27
47 2 19
47 3 34
47 4 12
47 5 22
47 6 25
47 7 37
47 8 24
47 9 9
47 10 22
47 11 39
47 12 34
47 13 33
47 14 22
47 15 22
47 16 9
47 17 30
47 18 22
47 19 14
47 20 19
47 21 33
47 22 11
47 23 9
47 24 38
47 25 2
47 27 16
47 28 14
47 29 14
47 30 12
47 31 14
47 32 37
47 33 10
47 34 36
47 35 18
47 36 14
47 39 8
47 40 4
47 41 2
47 42 20
47 43 8
47 44 24
47 46 35
48 0 13
48 1 6
48 2 38
48 3 8
48 4 36
48 5 28
48 6 21
48 7 39
48 8 8
48 9 11
48 10 19
48 11 25
48 12 33
48 13 31
48 14 40
48 15 8
48 16 28
48 17 24
48 18 5
48 19 40
48 21 4
48 22 16
48 23 34
48 24 40
48 25 2
48 26 38
48 28 5
48 29 1
48 30 28
48 31 1
48 32 30
48 33 16
48 34 19
48 35 8
48 36 28
48 37 36
48 38 34
48 40 22
48 41 13
48 42 34
48 44 5
48 45 22
48 46 35
48 47 9
49 0 38
49 1 37
49 2 28
49 3 13
49 4 19
49 5 11
49 6 20
49 7 14
49 8 40
49 9 18
49 10 1
49 11 18
49 12 39
49 13 27
49 14 31
49 15 30
49 16 29
49 17 27
49 18 29
49 19 9
49 20 5
49 21 13
49 22 1
49 23 11
49 24 28
49 25 4
49 26 8
49 28 27
49 29 4
49 30 5
49 31 21
49 33 24
49 34 19
49 35 39
49 36 18
49 37 17
49 38 23
49 39 18
49 40 35
49 41 38
49 42 5
49 43 24
49 44 23
49 45 25
49 46 11
49 47 35
49 48 4
50 0 28
50 1 17
50 3 35
50 4 35
50 6 39
50 7 39
50 8 4
50 9 40
50 10 30
50 11 31
50 12 18
50 13 22
50 14 26
50 15 3
50 16 7
50 18 11
50 19 35
50 20 18
50 22 11
50 23 29
50 24 8
50 25 35
50 26 16
50 27 1
50 28 32
50 29 27
50 30 26
50 31 34
50 32 15
50 33 1
50 34 14
50 35 23
50 36 27
50 38 38
50 39 39
50 41 12
50 42 15
50 43 27
50 44 9
50 45 9
50 46 39
50 47 26
50 48 5
50 49 20
51 0 3
51 1 35
51 2 28
51 3 29
51 4 4
51 5 11
51 6 2
51 7 25
51 8 25
51 9 8
51 10 11
51 11 24
51 12 22
51 13 2
51 14 30
51 15 12
51 16 27
51 17 19
51 18 28
51 19 9
51 20 11
51 21 5
51 22 3
51 23 13
51 25 28
51 26 8
51 27 4
51 28 24
51 29 36
51 30 11
51 31 6
51 32 24
51 33 10
51 34 26
51 35 19
51 36 18
51 37 11
51 38 37
51 39 5
51 40 4
51 41 3
51 42 38
51 43 39
51 44 32
51 45 34
51 46 28
51 47 30
51 48 27
51 49 22
52 0 16
52 1 11
52 3 5
52 4 19
52 5 18
52 6 11
52 7 19
52 10 38
52 11 6
52 12 30
52 13 3
52 14 37
52 15 1
52 16 2
52 17 21
52 18 14
52 19 2
52 20 21
52 21 26
52 22 13
52 23 15
52 24 40
52 25 7
52 26 35
52 27 15
52 28 10
52 29 34
52 30 19
52 31 32
52 33 19
52 34 24
52 35 38
52 36 17
52 37 12
52 38 20
52 39 19
52 40 38
52 41 19
52 42 16
52 44 37
52 45 13
52 46 31
52 47 18
52 48 7
52 49 26
52 50 14
52 51 38
53 0 35
53 1 6
53 2 28
53 3 15
53 4 12
53 5 28
53 6 24
53 7 24
53 8 38
53 9 15
53 10 18
53 11 19
53 12 31
53 13 29
53 14 1
53 15 2
53 16 40
53 17 11
53 18 31
53 20 10
53 21 3
53 22 28
53 23 29
53 24 35
53 25 6
53 26 6
53 27 28
53 28 29
53 30 10
53 32 32
53 33 7
53 34 38
53 35 18
53 36 20
53 37 26
53 38 26
53 39 13
53 40 9
53 41 15
53 42 1
53 44 13
53 45 35
53 46 2
53 47 38
53 48 13
53 49 35
53 50 18
53 52 37
54 0 11
54 1 8
54 2 11
54 3 9
54 4 21
54 5 29
54 6 34
54 7 34
54 8 32
54 9 23
54 10 19
54 11 14
54 12 29
54 13 35
54 14 3
54 15 38
54 16 27
54 17 40
54 18 20
54 19 23
54 20 39
54 21 24
54 22 23
54 23 24
54 24 6
54 25 22
54 26 36
54 27 5
54 28 14
54 29 30
54 30 27
54 31 27
54 32 27
54 33 25
54 34 31
54 35 8
54 36 20
54 37 29
54 38 29
54 39 7
54 40 39
54 41 36
54 42 13
54 44 7
54 46 30
54 47 6
54 48 6
54 49 23
54 50 16
54 51 5
54 52 15
54 53 16
55 0 8
55 1 31
55 2 30
55 3 35
55 4 1
55 5 1
55 6 24
55 7 9
55 8 6
55 9 30
55 10 25
55 11 35
55 13 30
55 14 9
55 15 11
55 16 11
55 17 29
55 18 15
55 19 28
55 20 35
55 21 33
55 22 14
55 23 1
55 24 5
55 25 3
55 26 27
55 27 36
55 28 9
55 29 28
55 30 9
55 31 37
55 32 11
55 33 29
55 34 36
55 35 1
55 36 34
55 37 15
55 38 34
55 39 4
55 40 33
55 41 7
55 42 27
55 43 11
55 44 35
55 45 28
55 46 32
55 47 31
55 48 12
55 49 4
55 50 29
55 53 15
55 54 17
56 0 2
56 1 28
56 2 35
56 3 34
56 4 6
56 5 9
56 6 21
56 7 30
56 8 9
56 9 38
56 10 4
56 11 38
56 12 39
56 13 4
56 14 34
56 15 22
56 16 7
56 17 4
56 19 16
56 20 8
56 21 39
56 23 5
56 24 8
56 25 8
56 27 34
56 28 32
56 29 32
56 30 5
56 31 29
56 32 20
56 33 30
56 34 9
56 35 30
56 36 31
56 37 10
56 38 14
56 39 36
56 40 11
56 41 3
56 42 38
56 43 8
56 44 20
56 45 24
56 46 15
56 47 35
56 48 21
56 49 5
56 50 13
56 52 31
56 53 4
56 54 28
56 55 9
57 0 4
57 1 36
57 2 19
57 3 29
57 4 14
57 5 36
57 6 8
57 7 34
57 8 34
57 9 23
57 10 40
57 11 24
57 12 13
57 13 22
57 14 33
57 15 33
57 16 15
57 17 8
57 19 8
57 20 30
57 21 17
57 22 2
57 23 14
57 24 18
57 25 5
57 26 33
57 27 4
57 29 36
57 30 21
57 31 2
57 32 22
57 33 3
57 35 9
57 36 38
57 37 10
57 38 23
57 39 10
57 40 22
57 43 18
57 44 1
57 45 10
57 46 17
57 47 7
57 48 3
57 49 19
57 50 17
57 51 11
57 52 33
57 53 31
57 54 6
58 0 10
58 1 6
58 2 14
58 3 19
58 4 13
58 5 33
58 6 35
58 7 16
58 8 16
58 9 5
58 10 1
58 11 17
58 12 26
58 13 6
58 14 35
58 15 16
58 16 23
58 17 36
58 18 17
58 19 20
58 20 36
58 21 7
58 23 12
58 24 9
58 25 33
58 26 11
58 27 24
58 28 1
58 29 37
58 30 34
58 31 21
58 32 35
58 33 34
58 34 30
58 35 34
58 36 28
58 37 5
58 38 15
58 39 19
58 40 1
58 41 39
58 42 22
58 43 1
58 44 21
58 45 6
58 46 17
58 47 13
58 48 9
58 49 34
58 50 9
58 51 9
58 52 19
58 53 1
58 54 4
58 55 37
58 56 3
58 57 39
59 0 17
59 1 24
59 2 1
59 3 26
59 4 2
59 6 20
59 7 23
59 8 9
59 10 1
59 11 10
59 12 28
59 13 28
59 14 30
59 15 24
59 16 19
59 17 2
59 18 31
59 19 25
59 21 2
59 22 37
59 23 22
59 24 16
59 25 14
59 26 39
59 27 12
59 28 17
59 29 24
59 30 29
59 31 4
59 32 17
59 33 35
59 34 28
59 36 24
59 37 17
59 38 1
59 39 27
59 40 3
59 41 32
59 42 27
59 43 2
59 44 35
59 45 1
59 46 21
59 47 40
59 49 14
59 50 28
59 51 2
59 52 29
59 53 25
59 54 31
59 55 1
59 57 33
59 58 37
